<number of tasks>
20

<cycle time>
1000

<order strength>
0,505


<task times>
1 335
2 386
3 635
4 524
5 522
6 614
7 493
8 671
9 549
10 418
11 513
12 280
13 339
14 457
15 429
16 642
17 390
18 548
19 583
20 589

<precedence relations>
1,5
2,6
3,7
4,7
5,8
6,9
7,9
7,10
7,11
8,12
9,14
10,13
10,14
11,14
12,16
13,15
14,16
14,17
14,18
15,19
16,19
17,20
18,19
18,20

<end>
